(declare-fun e () String)
(declare-fun g () String)
(declare-fun b () String)
(declare-fun d () String)
(declare-fun f () String)
(declare-fun a () String)
(declare-fun h () String)
(assert (= (str.++ "d" f) (str.++ b d d "a" e)))
(assert (= e (str.++ "aa" a h g)))
(assert (= (str.++ b "ghg") (str.++ "df" a g)))

(check-sat)
